c 5 __LINUXTHREADS_OLD__
c 1 __UCLIBC_HAS_CTYPE_TABLES__
c 2 __UCLIBC_HAS_THREADS_NATIVE__
c 3 __UCLIBC_SUSV4_LEGACY__
c 4 __UCLIBC_HAS_XLOCALE__
c 7 __UCLIBC_HAS_LOCALE__
c 8 __LINUXTHREADS_NEW__
c 6 __UCLIBC_HAS_THREADS__
p cnf 8 1
2 -1 -5 -4 -6 7 -3 8 1
